3 
4 
5  01 17 32 47 
6  03 13 18 23 28 33 38 43 48 53 58 
7  03 08 13 18 23 28 33 38 43 48 53 58 
8  03 08 13 18 23 28 33 38 43 48 53 58 
9  03 08 13 18 23 28 34 40 48 55 
10  03 10 18 25 33 40 48 55 
11  03 10 18 25 33 40 48 55 
12  03 10 18 25 33 40 48 55 
13  03 10 17 25 33 40 48 55 
14  03 10 17 25 33 40 48 53 58 
15  02 08 13 18 23 28 32 38 43 47 53 58 
16  02 08 13 17 23 28 32 38 43 47 53 58 
17  02 08 13 17 23 28 32 38 43 48 53 58 
18  03 08 13 18 23 28 33 38 44 50 56 
19  03 10 18 25 33 40 48 54 
20  01 09 17 24 35 50 57 
21  05 20 35 50 
22  00 15 30 46 
23  01 
0 
